DIMACS2
40 163 60 100 75 66 98 110 113 212 241 136 105 255 56 232 193 50 172 57 246 20 52 189 216 285 141 259 162 164 208 296 272 206 127 17 287 205 47 198 74
p edge 320 545
e 0 294 1.0
e 1 289 2.0
e 2 276 1.0
e 3 203 1.0
e 3 0 2.0
e 4 84 1.0
e 5 77 1.0
e 6 43 4.0
e 6 31 9.0
e 7 272 26.0
e 8 42 1.0
e 9 256 1.0
e 10 306 1.0
e 11 262 2.0
e 12 314 1.0
e 13 11 1.0
e 14 116 1.0
e 15 267 1.0
e 16 67 1.0
e 17 69 33.0
e 17 244 11.0
e 17 72 43.0
e 17 259 36.0
e 17 49 44.0
e 17 1 14.0
e 17 317 4.0
e 17 99 11.0
e 17 100 24.0
e 18 283 1.0
e 19 300 1.0
e 20 60 17.0
e 20 249 22.0
e 20 147 38.0
e 20 312 17.0
e 20 303 1.0
e 20 36 38.0
e 20 144 18.0
e 20 43 37.0
e 20 176 40.0
e 21 57 32.0
e 21 100 18.0
e 21 37 5.0
e 22 167 4.0
e 23 88 1.0
e 24 62 2.0
e 24 3 1.0
e 25 32 1.0
e 26 161 1.0
e 27 145 1.0
e 28 262 1.0
e 29 273 2.0
e 30 140 1.0
e 31 87 10.0
e 31 274 9.0
e 32 78 1.0
e 33 12 2.0
e 34 5 2.0
e 35 125 1.0
e 36 193 11.0
e 37 254 3.0
e 38 226 1.0
e 39 146 1.0
e 40 91 1.0
e 41 90 2.0
e 42 186 1.0
e 43 193 10.0
e 44 119 1.0
e 45 169 2.0
e 46 74 11.0
e 47 317 11.0
e 47 291 4.0
e 47 183 33.0
e 47 117 33.0
e 47 221 5.0
e 47 38 21.0
e 47 205 8.0
e 47 259 29.0
e 48 234 3.0
e 48 277 11.0
e 49 276 1.0
e 50 308 21.0
e 50 261 25.0
e 50 6 7.0
e 50 284 10.0
e 50 111 32.0
e 50 45 17.0
e 50 31 13.0
e 50 127 16.0
e 50 13 22.0
e 51 4 2.0
e 52 285 34.0
e 52 286 8.0
e 52 74 1.0
e 52 172 9.0
e 52 316 16.0
e 52 79 10.0
e 52 166 43.0
e 52 189 15.0
e 52 130 13.0
e 53 318 1.0
e 54 318 2.0
e 55 157 1.0
e 56 107 28.0
e 56 89 46.0
e 56 298 44.0
e 56 9 4.0
e 56 57 33.0
e 56 120 12.0
e 56 83 45.0
e 56 164 11.0
e 56 47 9.0
e 57 76 37.0
e 57 60 1.0
e 57 81 24.0
e 57 46 36.0
e 57 253 25.0
e 57 277 30.0
e 57 149 17.0
e 58 202 1.0
e 59 46 1.0
e 60 246 29.0
e 60 48 31.0
e 60 136 13.0
e 60 50 16.0
e 60 296 31.0
e 60 181 40.0
e 60 271 46.0
e 61 114 2.0
e 62 214 1.0
e 63 206 7.0
e 63 129 5.0
e 63 98 49.0
e 64 181 2.0
e 65 44 1.0
e 66 137 11.0
e 66 25 3.0
e 66 93 11.0
e 66 317 24.0
e 66 118 39.0
e 66 95 35.0
e 66 127 18.0
e 66 292 19.0
e 67 279 1.0
e 68 26 1.0
e 69 131 1.0
e 70 71 2.0
e 71 275 1.0
e 72 230 1.0
e 73 315 1.0
e 74 86 22.0
e 74 192 17.0
e 74 259 15.0
e 74 240 49.0
e 74 63 31.0
e 74 54 4.0
e 75 286 39.0
e 75 97 26.0
e 75 206 17.0
e 75 205 2.0
e 75 154 31.0
e 75 52 1.0
e 75 127 5.0
e 75 132 42.0
e 75 268 3.0
e 76 7 1.0
e 77 123 1.0
e 78 315 1.0
e 79 8 1.0
e 80 257 2.0
e 81 66 30.0
e 82 299 1.0
e 83 224 1.0
e 84 96 1.0
e 85 59 1.0
e 86 40 1.0
e 87 74 30.0
e 88 16 1.0
e 89 28 1.0
e 90 34 1.0
e 91 30 2.0
e 92 205 41.0
e 93 191 3.0
e 94 310 1.0
e 95 39 1.0
e 96 233 2.0
e 97 313 1.0
e 98 84 20.0
e 98 288 19.0
e 98 190 1.0
e 98 75 30.0
e 98 158 33.0
e 98 121 23.0
e 98 100 28.0
e 98 199 3.0
e 99 226 6.0
e 100 280 17.0
e 100 272 40.0
e 100 174 26.0
e 100 232 3.0
e 100 255 4.0
e 100 101 19.0
e 101 46 1.0
e 102 264 1.0
e 103 105 27.0
e 103 159 7.0
e 104 29 2.0
e 105 4 24.0
e 105 232 33.0
e 105 127 23.0
e 105 255 35.0
e 105 98 29.0
e 105 100 2.0
e 105 241 47.0
e 105 74 39.0
e 106 84 1.0
e 107 189 33.0
e 108 307 2.0
e 109 36 3.0
e 110 305 18.0
e 110 208 46.0
e 110 15 32.0
e 110 265 36.0
e 110 272 27.0
e 110 167 36.0
e 110 193 12.0
e 110 278 25.0
e 110 17 40.0
e 111 308 1.0
e 112 22 2.0
e 113 203 29.0
e 113 136 16.0
e 113 285 11.0
e 113 212 18.0
e 113 266 25.0
e 113 56 8.0
e 113 205 36.0
e 113 291 41.0
e 113 81 12.0
e 114 3 1.0
e 115 33 1.0
e 116 134 1.0
e 117 55 2.0
e 118 147 2.0
e 119 139 1.0
e 120 19 1.0
e 121 128 1.0
e 122 231 1.0
e 123 276 1.0
e 124 281 2.0
e 125 160 1.0
e 126 269 2.0
e 127 88 49.0
e 127 110 14.0
e 127 246 34.0
e 128 239 1.0
e 129 8 1.0
e 130 90 1.0
e 131 193 29.0
e 132 169 1.0
e 133 10 1.0
e 134 299 2.0
e 135 73 1.0
e 136 124 12.0
e 136 295 41.0
e 136 272 6.0
e 136 319 6.0
e 136 103 17.0
e 136 251 45.0
e 136 57 38.0
e 137 64 1.0
e 138 39 1.0
e 139 258 1.0
e 140 318 5.0
e 141 137 13.0
e 141 21 5.0
e 141 60 10.0
e 141 272 18.0
e 141 18 15.0
e 141 285 5.0
e 141 236 15.0
e 141 65 11.0
e 141 20 5.0
e 142 204 2.0
e 143 245 1.0
e 144 246 28.0
e 145 209 1.0
e 146 53 1.0
e 147 193 32.0
e 148 155 1.0
e 149 150 1.0
e 150 185 1.0
e 151 10 1.0
e 152 33 1.0
e 153 41 1.0
e 154 86 1.0
e 155 200 1.0
e 156 202 1.0
e 157 207 1.0
e 158 180 1.0
e 159 204 2.0
e 160 135 1.0
e 161 214 1.0
e 162 277 39.0
e 162 66 40.0
e 162 127 13.0
e 162 163 34.0
e 162 141 43.0
e 162 285 12.0
e 162 105 8.0
e 162 106 2.0
e 162 205 31.0
e 163 275 49.0
e 163 164 35.0
e 163 23 12.0
e 163 246 21.0
e 163 296 33.0
e 164 196 8.0
e 164 296 22.0
e 164 108 1.0
e 164 109 38.0
e 164 133 27.0
e 165 268 1.0
e 166 233 2.0
e 167 212 22.0
e 168 10 1.0
e 169 88 1.0
e 170 92 1.0
e 171 279 1.0
e 172 99 1.0
e 172 188 28.0
e 172 179 47.0
e 172 238 17.0
e 172 272 40.0
e 172 27 28.0
e 172 136 23.0
e 172 112 15.0
e 173 126 2.0
e 174 124 2.0
e 175 64 1.0
e 176 282 1.0
e 177 205 10.0
e 178 2 1.0
e 179 147 12.0
e 180 61 1.0
e 181 198 41.0
e 182 41 1.0
e 183 270 1.0
e 184 164 48.0
e 185 148 1.0
e 186 127 49.0
e 187 168 1.0
e 188 70 1.0
e 189 196 22.0
e 189 113 11.0
e 189 272 29.0
e 189 138 40.0
e 189 212 35.0
e 189 162 22.0
e 189 163 21.0
e 190 80 2.0
e 191 35 2.0
e 192 85 2.0
e 193 314 38.0
e 193 163 14.0
e 193 302 17.0
e 193 232 29.0
e 194 227 1.0
e 195 267 3.0
e 196 51 1.0
e 197 307 1.0
e 198 140 28.0
e 198 163 26.0
e 198 164 7.0
e 198 232 2.0
e 198 172 4.0
e 198 272 13.0
e 198 184 18.0
e 199 153 1.0
e 200 299 1.0
e 201 208 38.0
e 202 8 1.0
e 203 180 1.0
e 204 260 1.0
e 205 18 13.0
e 205 163 20.0
e 206 245 33.0
e 206 241 30.0
e 206 189 31.0
e 206 193 11.0
e 206 232 30.0
e 206 194 32.0
e 206 309 29.0
e 207 182 1.0
e 208 234 33.0
e 208 195 41.0
e 208 241 1.0
e 208 293 49.0
e 208 197 18.0
e 208 198 4.0
e 209 227 1.0
e 210 301 1.0
e 211 205 45.0
e 212 186 1.0
e 212 205 31.0
e 212 206 46.0
e 212 208 34.0
e 212 287 31.0
e 212 210 11.0
e 213 140 1.0
e 214 68 1.0
e 215 173 1.0
e 216 3 13.0
e 216 212 10.0
e 216 222 13.0
e 216 296 43.0
e 216 215 40.0
e 216 217 3.0
e 216 219 5.0
e 216 285 15.0
e 216 220 44.0
e 217 165 1.0
e 218 175 1.0
e 219 263 1.0
e 220 301 1.0
e 221 116 1.0
e 222 47 24.0
e 223 260 1.0
e 224 262 2.0
e 225 262 1.0
e 226 140 1.0
e 227 187 1.0
e 228 3 1.0
e 229 70 1.0
e 230 247 1.0
e 231 173 1.0
e 232 186 30.0
e 232 216 44.0
e 232 235 8.0
e 233 223 1.0
e 234 260 2.0
e 235 170 1.0
e 236 225 1.0
e 237 139 1.0
e 238 124 2.0
e 239 156 1.0
e 240 122 2.0
e 241 61 17.0
e 241 232 35.0
e 241 242 17.0
e 241 246 24.0
e 241 248 40.0
e 241 253 48.0
e 242 178 1.0
e 243 127 12.0
e 244 156 1.0
e 245 150 2.0
e 246 177 49.0
e 246 255 30.0
e 246 259 46.0
e 247 211 1.0
e 248 19 1.0
e 249 311 1.0
e 250 171 1.0
e 251 58 1.0
e 252 15 1.0
e 253 208 42.0
e 254 104 1.0
e 255 296 11.0
e 255 241 10.0
e 255 259 29.0
e 255 272 42.0
e 255 285 41.0
e 256 311 2.0
e 257 143 1.0
e 258 94 1.0
e 259 173 16.0
e 259 285 20.0
e 259 286 16.0
e 259 287 49.0
e 260 78 2.0
e 261 5 1.0
e 262 246 34.0
e 263 231 1.0
e 264 14 1.0
e 265 209 1.0
e 266 61 5.0
e 267 198 24.0
e 268 232 37.0
e 269 29 1.0
e 270 148 1.0
e 271 173 2.0
e 272 142 26.0
e 273 58 1.0
e 274 173 1.0
e 275 249 4.0
e 276 297 1.0
e 277 237 3.0
e 278 85 2.0
e 279 213 2.0
e 280 151 1.0
e 281 10 2.0
e 282 152 3.0
e 283 115 1.0
e 284 290 1.0
e 285 164 31.0
e 285 246 31.0
e 286 310 12.0
e 287 280 45.0
e 287 255 15.0
e 287 285 18.0
e 287 296 24.0
e 287 304 48.0
e 288 225 1.0
e 289 264 2.0
e 290 116 2.0
e 291 201 2.0
e 292 80 1.0
e 293 263 1.0
e 294 255 16.0
e 295 34 1.0
e 296 122 46.0
e 296 259 25.0
e 297 103 7.0
e 298 3 1.0
e 299 243 2.0
e 300 4 1.0
e 301 218 1.0
e 302 253 5.0
e 303 69 1.0
e 304 228 1.0
e 305 225 1.0
e 306 58 1.0
e 307 82 1.0
e 308 243 1.0
e 309 102 1.0
e 310 37 4.0
e 311 263 2.0
e 312 305 2.0
e 313 10 1.0
e 314 42 4.0
e 315 146 1.0
e 316 252 1.0
e 317 229 3.0
e 318 250 1.0
e 319 289 1.0
